4 0
16 0
19 0
24 10
28 21
37 21
38 21
41 21
42 21
43 21
44 21
46 21
47 21
49 21
50 21
52 21
54 21
56 21
57 21
59 21
60 21
61 21
62 21
63 21
64 21
66 21
68 21
70 21
71 21
73 21
74 21
75 21
77 21
80 21
83 21
87 21
91 21
100 21
102 21
105 21
106 21
129 21
130 21
132 21
133 21
134 21
135 21
136 21
137 21
139 21
